
n_res = 8;
rcap = [30, 34, 30, 33, 1606, 1711, 1760, 1731];
rtype = [1, 1, 1, 1, 2, 2, 2, 2];
n_tasks = 100;
modes =  [{1, 2, 3, 4, 5, 6}, {7, 8, 9, 10, 11, 12}, {13, 14, 15, 16, 17, 18}, {19, 20, 21, 22, 23, 24}, {25, 26, 27, 28, 29, 30}, {31, 32, 33, 34, 35, 36}, {37, 38, 39, 40, 41, 42}, {43, 44, 45, 46, 47, 48}, {49, 50, 51, 52, 53, 54}, {55, 56, 57, 58, 59, 60}, {61, 62, 63, 64, 65, 66}, {67, 68, 69, 70, 71, 72}, {73, 74, 75, 76, 77, 78}, {79, 80, 81, 82, 83, 84}, {85, 86, 87, 88, 89, 90}, {91, 92, 93, 94, 95, 96}, {97, 98, 99, 100, 101, 102}, {103, 104, 105, 106, 107, 108}, {109, 110, 111, 112, 113, 114}, {115, 116, 117, 118, 119, 120}, {121, 122, 123, 124, 125, 126}, {127, 128, 129, 130, 131, 132}, {133, 134, 135, 136, 137, 138}, {139, 140, 141, 142, 143, 144}, {145, 146, 147, 148, 149, 150}, {151, 152, 153, 154, 155, 156}, {157, 158, 159, 160, 161, 162}, {163, 164, 165, 166, 167, 168}, {169, 170, 171, 172, 173, 174}, {175, 176, 177, 178, 179, 180}, {181, 182, 183, 184, 185, 186}, {187, 188, 189, 190, 191, 192}, {193, 194, 195, 196, 197, 198}, {199, 200, 201, 202, 203, 204}, {205, 206, 207, 208, 209, 210}, {211, 212, 213, 214, 215, 216}, {217, 218, 219, 220, 221, 222}, {223, 224, 225, 226, 227, 228}, {229, 230, 231, 232, 233, 234}, {235, 236, 237, 238, 239, 240}, {241, 242, 243, 244, 245, 246}, {247, 248, 249, 250, 251, 252}, {253, 254, 255, 256, 257, 258}, {259, 260, 261, 262, 263, 264}, {265, 266, 267, 268, 269, 270}, {271, 272, 273, 274, 275, 276}, {277, 278, 279, 280, 281, 282}, {283, 284, 285, 286, 287, 288}, {289, 290, 291, 292, 293, 294}, {295, 296, 297, 298, 299, 300}, {301, 302, 303, 304, 305, 306}, {307, 308, 309, 310, 311, 312}, {313, 314, 315, 316, 317, 318}, {319, 320, 321, 322, 323, 324}, {325, 326, 327, 328, 329, 330}, {331, 332, 333, 334, 335, 336}, {337, 338, 339, 340, 341, 342}, {343, 344, 345, 346, 347, 348}, {349, 350, 351, 352, 353, 354}, {355, 356, 357, 358, 359, 360}, {361, 362, 363, 364, 365, 366}, {367, 368, 369, 370, 371, 372}, {373, 374, 375, 376, 377, 378}, {379, 380, 381, 382, 383, 384}, {385, 386, 387, 388, 389, 390}, {391, 392, 393, 394, 395, 396}, {397, 398, 399, 400, 401, 402}, {403, 404, 405, 406, 407, 408}, {409, 410, 411, 412, 413, 414}, {415, 416, 417, 418, 419, 420}, {421, 422, 423, 424, 425, 426}, {427, 428, 429, 430, 431, 432}, {433, 434, 435, 436, 437, 438}, {439, 440, 441, 442, 443, 444}, {445, 446, 447, 448, 449, 450}, {451, 452, 453, 454, 455, 456}, {457, 458, 459, 460, 461, 462}, {463, 464, 465, 466, 467, 468}, {469, 470, 471, 472, 473, 474}, {475, 476, 477, 478, 479, 480}, {481, 482, 483, 484, 485, 486}, {487, 488, 489, 490, 491, 492}, {493, 494, 495, 496, 497, 498}, {499, 500, 501, 502, 503, 504}, {505, 506, 507, 508, 509, 510}, {511, 512, 513, 514, 515, 516}, {517, 518, 519, 520, 521, 522}, {523, 524, 525, 526, 527, 528}, {529, 530, 531, 532, 533, 534}, {535, 536, 537, 538, 539, 540}, {541, 542, 543, 544, 545, 546}, {547, 548, 549, 550, 551, 552}, {553, 554, 555, 556, 557, 558}, {559, 560, 561, 562, 563, 564}, {565, 566, 567, 568, 569, 570}, {571, 572, 573, 574, 575, 576}, {577, 578, 579, 580, 581, 582}, {583, 584, 585, 586, 587, 588}, {589, 590, 591, 592, 593, 594}, {595, 596, 597, 598, 599, 600}];
succ =  [{45, 41, 40, 38, 36, 32, 30, 29, 28, 25, 23, 17, 16}, {46, 42, 39, 35, 32, 31, 28, 26, 25, 24, 16, 13}, {45, 42, 40, 31, 30, 29, 24, 23, 22, 17}, {42, 41, 37, 32, 30, 26, 25, 22, 21, 20}, {64, 51, 45, 42, 41, 40, 38, 37, 34, 31, 30, 24, 22}, {51, 46, 45, 42, 38, 37, 32, 31, 29, 25, 20}, {64, 58, 37, 34, 30, 26, 25, 24, 22}, {64, 53, 51, 50, 49, 48, 45, 43, 42, 41, 38, 37, 34, 33, 30, 25}, {68, 62, 52, 51, 48, 47, 45, 42, 41, 34, 28, 22}, {64, 50, 46, 40, 38, 37, 36, 34, 33, 32, 28}, {64, 62, 52, 51, 50, 49, 47, 45, 43, 42, 41, 39, 38, 36, 34}, {76, 64, 53, 51, 49, 48, 44, 43, 41, 38, 33, 30}, {76, 64, 58, 53, 51, 49, 48, 47, 43, 41, 34, 30}, {53, 51, 50, 49, 48, 41, 35, 34, 31, 30}, {68, 64, 63, 49, 48, 46, 45, 44, 43, 41, 39, 31}, {76, 70, 68, 65, 63, 62, 60, 56, 54, 53, 52, 50, 49, 48, 44, 43, 37}, {69, 58, 52, 51, 48, 39, 37, 34, 33, 27}, {76, 68, 62, 60, 58, 57, 56, 51, 50, 47, 44, 43, 42, 34}, {68, 63, 58, 52, 51, 48, 41, 36, 33}, {73, 67, 64, 60, 56, 53, 52, 50, 49, 47, 44, 34}, {76, 67, 64, 62, 56, 55, 54, 52, 49, 48, 44, 38}, {63, 55, 53, 50, 49, 46, 44, 43, 39, 36}, {100, 76, 70, 69, 68, 67, 62, 61, 60, 58, 54, 52, 48}, {100, 82, 70, 67, 63, 49, 48, 36}, {76, 73, 72, 70, 67, 66, 65, 62, 60, 59, 47, 44}, {76, 70, 69, 65, 61, 60, 56, 54, 51, 48, 43}, {77, 76, 73, 72, 70, 67, 66, 64, 62, 59, 56, 53, 47}, {70, 65, 59, 58, 56, 49, 44, 43}, {76, 69, 68, 58, 54, 48, 43}, {100, 83, 78, 69, 68, 67, 65, 63, 62, 57, 55, 54, 52}, {83, 73, 69, 66, 65, 60, 59, 54, 52, 47}, {70, 65, 62, 61, 59, 55, 54, 53, 52}, {100, 83, 78, 73, 67, 62, 54, 47}, {100, 99, 95, 78, 70, 66, 65, 63, 61, 55, 54}, {98, 83, 73, 65, 64, 62, 60, 59, 57, 56, 54}, {98, 83, 76, 73, 69, 66, 65, 57, 56, 54}, {83, 77, 72, 67, 59, 47}, {100, 97, 96, 73, 70, 69, 68, 66, 65, 61, 58}, {98, 83, 82, 81, 80, 75, 73, 71, 67, 66, 59}, {83, 81, 60, 47}, {100, 98, 97, 93, 82, 72, 70, 60, 56}, {98, 96, 95, 81, 78, 73, 67, 61, 54}, {100, 99, 96, 95, 93, 92, 88, 82, 80, 77, 75, 72, 71, 67}, {100, 99, 96, 91, 89, 83, 78, 77, 69, 61}, {99, 98, 83, 72, 69, 66, 65, 61}, {100, 99, 97, 89, 88, 87, 83, 73, 71, 60}, {99, 95, 93, 91, 61, 55}, {97, 94, 83, 75, 73, 66, 59}, {99, 98, 93, 92, 78, 77, 71, 57}, {97, 94, 93, 91, 90, 81, 77, 59}, {96, 95, 93, 92, 91, 89, 87, 82, 80, 78, 77, 74, 71}, {99, 97, 96, 94, 93, 92, 91, 88, 74, 71}, {100, 93, 92, 91, 89, 87, 83, 82, 74, 71}, {97, 93, 92, 90, 89, 88, 87, 77, 72}, {98, 94, 92, 90, 88, 82, 79, 75, 74}, {96, 88, 80, 75, 74, 71}, {94, 91, 89, 88, 87, 80, 79, 74}, {98, 93, 90, 88, 87, 82, 79, 74}, {96, 95, 92, 89, 87, 78, 74}, {96, 95, 94, 92, 91, 77, 74}, {94, 92, 87, 80, 74, 71}, {96, 95, 93, 91, 87, 81, 79}, {96, 92, 91, 90, 86, 81, 79}, {97, 95, 90, 89, 88, 87, 79}, {91, 90, 87, 86, 80, 79}, {92, 91, 89, 88, 79}, {97, 94, 91, 87, 86, 84}, {93, 90, 89, 88, 86, 85}, {95, 93, 85, 84, 81}, {92, 89, 86, 85, 84}, {90, 86, 79}, {79, 74}, {93, 86, 85, 84}, {86, 85, 84}, {89, 87, 84}, {91, 85, 84}, {79}, {79}, {85, 84}, {85, 84}, {88}, {84}, {85}, {}, {}, {}, {}, {}, {}, {}, {}, {}, {}, {}, {}, {}, {}, {}, {}, {}];
n_opt = 600;
dur = [4, 5, 9, 11, 16, 21, 1, 11, 13, 17, 18, 27, 1, 3, 7, 13, 15, 29, 11, 15, 17, 18, 22, 26, 6, 12, 15, 17, 24, 26, 3, 18, 23, 24, 28, 29, 5, 8, 9, 19, 27, 29, 1, 2, 11, 21, 25, 30, 4, 5, 19, 20, 21, 26, 3, 9, 11, 14, 22, 23, 2, 9, 12, 14, 17, 27, 2, 5, 17, 19, 29, 30, 1, 14, 15, 16, 21, 24, 2, 6, 17, 18, 28, 29, 5, 7, 9, 12, 14, 27, 6, 16, 24, 28, 29, 30, 4, 20, 22, 24, 27, 28, 1, 2, 3, 15, 25, 26, 1, 7, 16, 20, 22, 23, 2, 3, 9, 10, 11, 28, 2, 4, 7, 11, 12, 26, 3, 5, 11, 15, 18, 25, 4, 10, 14, 17, 19, 28, 1, 6, 7, 13, 14, 27, 5, 10, 13, 18, 19, 23, 3, 4, 12, 14, 19, 20, 2, 5, 6, 7, 19, 20, 1, 11, 13, 14, 22, 24, 14, 21, 26, 28, 29, 30, 2, 6, 8, 17, 23, 30, 1, 2, 22, 25, 29, 30, 4, 5, 6, 12, 25, 29, 9, 16, 21, 22, 24, 30, 1, 7, 10, 14, 22, 24, 11, 12, 22, 25, 28, 29, 3, 7, 15, 18, 22, 26, 12, 14, 16, 21, 26, 27, 1, 2, 10, 11, 17, 24, 1, 12, 13, 25, 26, 29, 10, 12, 18, 26, 27, 30, 1, 6, 17, 20, 27, 29, 4, 13, 14, 17, 20, 23, 1, 9, 14, 20, 27, 29, 2, 9, 17, 19, 22, 24, 5, 6, 7, 20, 28, 30, 2, 3, 4, 10, 11, 19, 5, 9, 11, 19, 20, 28, 6, 18, 19, 20, 21, 29, 2, 5, 6, 18, 22, 25, 1, 6, 13, 23, 25, 29, 5, 10, 11, 19, 26, 27, 6, 11, 19, 23, 24, 25, 1, 9, 15, 19, 20, 25, 1, 9, 12, 15, 21, 27, 10, 15, 19, 20, 25, 27, 5, 12, 20, 21, 28, 29, 4, 17, 18, 19, 22, 30, 4, 11, 12, 15, 17, 23, 3, 11, 15, 24, 25, 29, 2, 11, 15, 20, 21, 22, 3, 9, 12, 18, 22, 30, 1, 2, 4, 14, 15, 17, 17, 18, 20, 21, 29, 30, 2, 7, 19, 20, 29, 30, 2, 4, 8, 19, 22, 30, 1, 6, 12, 13, 19, 27, 1, 2, 4, 12, 13, 21, 5, 6, 11, 15, 19, 26, 1, 2, 10, 12, 14, 17, 2, 3, 5, 10, 13, 20, 3, 10, 11, 12, 15, 20, 1, 5, 10, 23, 28, 29, 6, 13, 17, 18, 19, 30, 7, 10, 16, 28, 29, 30, 4, 5, 14, 19, 25, 30, 3, 4, 5, 8, 15, 21, 2, 5, 9, 14, 23, 25, 2, 5, 7, 14, 15, 17, 1, 3, 5, 8, 9, 14, 1, 12, 13, 26, 28, 30, 9, 19, 23, 24, 25, 26, 1, 2, 8, 9, 10, 23, 6, 9, 19, 20, 25, 28, 3, 7, 11, 19, 22, 23, 3, 11, 27, 28, 29, 30, 5, 8, 11, 15, 25, 29, 9, 19, 20, 21, 27, 29, 9, 11, 13, 19, 20, 29, 9, 11, 12, 23, 26, 30, 2, 10, 16, 20, 24, 26, 3, 5, 7, 21, 22, 26, 3, 9, 11, 15, 19, 29, 4, 11, 17, 18, 21, 26, 3, 5, 8, 14, 16, 29, 5, 6, 7, 16, 21, 24, 2, 9, 10, 11, 21, 23, 1, 2, 8, 12, 13, 17, 9, 11, 12, 17, 18, 19, 2, 3, 11, 15, 17, 20, 2, 3, 7, 11, 19, 24];
rreq = [|3, 3, 2, 2, 1, 1, 1, 1, 1, 1, 1, 1, 1, 1, 1, 1, 1, 1, 3, 2, 2, 2, 2, 2, 5, 4, 3, 3, 2, 2, 4, 3, 3, 3, 3, 3, 4, 4, 3, 3, 3, 2, 4, 4, 3, 3, 2, 2, 5, 5, 5, 5, 5, 5, 2, 1, 1, 1, 1, 1, 3, 3, 2, 2, 1, 1, 4, 4, 4, 4, 4, 4, 5, 3, 3, 2, 1, 1, 4, 4, 3, 3, 1, 1, 3, 3, 2, 2, 2, 1, 3, 2, 2, 2, 2, 2, 4, 4, 4, 4, 3, 3, 5, 4, 4, 3, 2, 2, 5, 4, 3, 3, 1, 1, 2, 2, 2, 2, 2, 2, 4, 3, 3, 2, 1, 1, 5, 3, 3, 2, 1, 1, 4, 3, 3, 3, 3, 3, 3, 2, 2, 2, 2, 2, 1, 1, 1, 1, 1, 1, 3, 2, 2, 2, 2, 2, 1, 1, 1, 1, 1, 1, 4, 4, 4, 4, 4, 4, 2, 1, 1, 1, 1, 1, 3, 3, 3, 3, 3, 3, 4, 3, 2, 2, 2, 1, 3, 3, 3, 3, 3, 3, 3, 3, 3, 3, 3, 3, 4, 3, 3, 3, 3, 3, 5, 4, 4, 4, 4, 4, 4, 3, 3, 3, 1, 1, 2, 1, 1, 1, 1, 1, 3, 3, 3, 3, 3, 3, 2, 2, 2, 2, 1, 1, 4, 4, 3, 3, 2, 2, 5, 4, 3, 3, 2, 1, 4, 4, 4, 4, 3, 3, 2, 2, 2, 2, 2, 2, 2, 2, 2, 1, 1, 1, 4, 3, 3, 3, 3, 3, 3, 3, 3, 3, 3, 3, 5, 3, 3, 2, 1, 1, 2, 2, 2, 1, 1, 1, 2, 2, 2, 2, 2, 2, 3, 3, 2, 2, 1, 1, 3, 3, 3, 3, 3, 3, 2, 2, 2, 2, 1, 1, 4, 4, 4, 4, 4, 4, 4, 4, 4, 3, 3, 2, 4, 3, 3, 3, 3, 3, 3, 3, 3, 3, 3, 3, 3, 2, 2, 2, 2, 2, 5, 5, 5, 5, 5, 5, 4, 4, 3, 2, 1, 1, 4, 4, 3, 3, 2, 2, 4, 3, 3, 3, 3, 3, 5, 4, 4, 4, 4, 4, 3, 3, 2, 2, 2, 1, 4, 4, 4, 4, 3, 3, 3, 2, 2, 2, 2, 2, 5, 4, 4, 3, 3, 3, 5, 4, 3, 3, 3, 2, 4, 4, 3, 3, 3, 2, 2, 2, 2, 2, 2, 2, 4, 4, 4, 3, 3, 3, 3, 3, 3, 3, 3, 3, 2, 2, 2, 2, 2, 2, 4, 3, 3, 3, 1, 1, 4, 3, 2, 2, 1, 1, 5, 4, 4, 4, 4, 4, 4, 3, 3, 2, 1, 1, 4, 3, 3, 3, 3, 3, 3, 2, 2, 2, 2, 2, 2, 2, 2, 2, 2, 2, 3, 3, 2, 2, 1, 1, 5, 4, 3, 3, 2, 2, 4, 3, 3, 3, 2, 1, 2, 2, 2, 1, 1, 1, 4, 3, 3, 3, 3, 3, 4, 3, 3, 2, 1, 1, 4, 3, 3, 2, 2, 1, 1, 1, 1, 1, 1, 1, 4, 4, 3, 3, 1, 1, 1, 1, 1, 1, 1, 1, 3, 2, 2, 2, 2, 2, 5, 4, 4, 4, 4, 4, 3, 3, 3, 2, 1, 1, 5, 3, 3, 2, 2, 1, 4, 3, 3, 3, 3, 3, 5, 4, 4, 4, 4, 4, 4, 3, 3, 2, 2, 2, 5, 4, 4, 3, 2, 2, 2, 2, 2, 2, 2, 2, 2, 2, 2, 2, 2, 2, 4, 3, 3, 2, 2, 1
 |5, 4, 4, 3, 3, 2, 4, 4, 4, 4, 4, 4, 4, 4, 4, 4, 4, 4, 4, 3, 2, 2, 1, 1, 3, 3, 3, 2, 2, 2, 2, 2, 2, 1, 1, 1, 4, 3, 3, 2, 2, 2, 2, 2, 2, 2, 2, 2, 5, 4, 4, 4, 3, 3, 4, 4, 4, 4, 4, 4, 5, 4, 4, 3, 3, 2, 5, 4, 4, 3, 3, 3, 5, 4, 3, 3, 3, 2, 3, 3, 3, 3, 3, 3, 4, 4, 4, 4, 4, 4, 3, 3, 3, 2, 2, 2, 1, 1, 1, 1, 1, 1, 5, 4, 4, 3, 3, 3, 5, 4, 4, 4, 3, 3, 3, 3, 3, 3, 3, 3, 4, 4, 3, 3, 3, 2, 1, 1, 1, 1, 1, 1, 3, 2, 2, 2, 1, 1, 1, 1, 1, 1, 1, 1, 2, 2, 2, 2, 2, 2, 1, 1, 1, 1, 1, 1, 3, 3, 3, 3, 3, 3, 4, 4, 4, 4, 4, 4, 3, 3, 3, 2, 2, 2, 4, 3, 2, 2, 2, 1, 3, 3, 3, 3, 3, 3, 2, 2, 2, 1, 1, 1, 3, 3, 3, 2, 1, 1, 4, 4, 4, 3, 2, 2, 3, 2, 2, 2, 1, 1, 5, 4, 3, 3, 2, 2, 5, 4, 4, 4, 4, 4, 3, 2, 2, 2, 2, 2, 5, 5, 5, 5, 5, 5, 3, 3, 3, 3, 3, 3, 4, 3, 3, 3, 3, 3, 4, 4, 4, 4, 4, 4, 1, 1, 1, 1, 1, 1, 3, 3, 3, 3, 3, 3, 5, 4, 4, 3, 3, 3, 2, 2, 2, 2, 2, 2, 3, 3, 3, 3, 3, 3, 3, 2, 2, 2, 2, 2, 5, 4, 4, 4, 4, 4, 5, 4, 4, 3, 3, 2, 4, 3, 3, 2, 1, 1, 3, 3, 3, 3, 3, 3, 4, 4, 4, 4, 4, 4, 5, 5, 5, 5, 5, 5, 1, 1, 1, 1, 1, 1, 5, 4, 4, 3, 3, 3, 3, 3, 3, 3, 2, 2, 3, 2, 2, 1, 1, 1, 3, 2, 2, 2, 2, 2, 4, 4, 3, 3, 2, 1, 3, 3, 2, 2, 1, 1, 3, 2, 2, 1, 1, 1, 5, 5, 5, 5, 5, 5, 3, 2, 2, 2, 1, 1, 4, 3, 3, 3, 3, 3, 5, 4, 3, 3, 3, 2, 4, 3, 3, 3, 3, 3, 2, 1, 1, 1, 1, 1, 3, 3, 3, 3, 3, 3, 4, 4, 4, 4, 4, 4, 2, 1, 1, 1, 1, 1, 4, 4, 4, 4, 4, 4, 5, 4, 4, 4, 3, 3, 4, 4, 4, 4, 4, 4, 2, 2, 2, 2, 2, 2, 3, 3, 3, 3, 3, 3, 2, 2, 2, 2, 2, 2, 3, 3, 3, 3, 2, 2, 4, 3, 3, 3, 3, 3, 4, 4, 3, 3, 3, 2, 2, 2, 2, 1, 1, 1, 4, 4, 4, 4, 4, 4, 1, 1, 1, 1, 1, 1, 5, 4, 4, 3, 2, 2, 1, 1, 1, 1, 1, 1, 3, 3, 3, 2, 2, 2, 3, 3, 3, 3, 3, 3, 5, 4, 4, 4, 4, 4, 3, 3, 2, 2, 2, 1, 3, 2, 2, 2, 1, 1, 4, 4, 3, 3, 1, 1, 5, 4, 4, 4, 4, 4, 3, 3, 3, 2, 2, 2, 2, 1, 1, 1, 1, 1, 4, 3, 2, 2, 2, 1, 4, 4, 4, 4, 3, 3, 2, 2, 2, 1, 1, 1, 5, 4, 3, 3, 1, 1, 4, 3, 2, 2, 2, 1, 2, 2, 2, 2, 2, 2
 |4, 4, 4, 4, 3, 3, 5, 4, 4, 3, 3, 3, 5, 4, 4, 3, 3, 2, 5, 4, 4, 3, 2, 2, 1, 1, 1, 1, 1, 1, 3, 2, 2, 1, 1, 1, 1, 1, 1, 1, 1, 1, 4, 4, 4, 4, 4, 4, 1, 1, 1, 1, 1, 1, 2, 2, 2, 1, 1, 1, 4, 4, 3, 3, 3, 2, 4, 3, 3, 3, 2, 2, 4, 4, 4, 3, 3, 2, 2, 2, 2, 2, 2, 2, 5, 4, 4, 3, 3, 3, 4, 4, 4, 4, 4, 4, 4, 4, 4, 4, 3, 3, 5, 4, 4, 4, 4, 4, 4, 3, 3, 2, 1, 1, 2, 1, 1, 1, 1, 1, 3, 3, 3, 2, 1, 1, 2, 2, 2, 1, 1, 1, 5, 4, 3, 3, 3, 2, 4, 4, 4, 3, 3, 2, 4, 3, 3, 2, 2, 1, 5, 5, 5, 5, 5, 5, 5, 4, 4, 4, 4, 4, 4, 4, 4, 3, 3, 2, 1, 1, 1, 1, 1, 1, 3, 3, 3, 3, 3, 3, 1, 1, 1, 1, 1, 1, 4, 4, 3, 2, 1, 1, 4, 3, 3, 2, 2, 2, 1, 1, 1, 1, 1, 1, 4, 4, 4, 3, 2, 2, 5, 4, 4, 4, 3, 3, 3, 3, 3, 3, 3, 3, 1, 1, 1, 1, 1, 1, 3, 2, 2, 2, 1, 1, 2, 2, 2, 2, 2, 2, 4, 4, 4, 4, 4, 4, 2, 2, 2, 2, 2, 2, 4, 4, 4, 4, 4, 4, 2, 1, 1, 1, 1, 1, 2, 2, 2, 2, 2, 2, 2, 2, 2, 2, 2, 2, 4, 3, 3, 3, 2, 2, 3, 3, 3, 3, 2, 2, 3, 2, 2, 2, 2, 2, 1, 1, 1, 1, 1, 1, 4, 3, 3, 3, 3, 3, 5, 4, 4, 3, 3, 3, 1, 1, 1, 1, 1, 1, 4, 4, 4, 4, 4, 4, 4, 4, 4, 4, 4, 4, 2, 1, 1, 1, 1, 1, 3, 3, 3, 3, 3, 3, 2, 1, 1, 1, 1, 1, 4, 4, 4, 3, 2, 2, 4, 3, 3, 2, 1, 1, 4, 4, 4, 4, 4, 4, 3, 3, 2, 2, 2, 1, 5, 3, 3, 3, 1, 1, 4, 4, 3, 2, 1, 1, 2, 2, 2, 2, 2, 2, 1, 1, 1, 1, 1, 1, 4, 4, 4, 4, 3, 3, 4, 4, 3, 2, 2, 1, 3, 3, 3, 3, 3, 3, 3, 3, 3, 2, 1, 1, 4, 4, 4, 4, 4, 4, 2, 2, 2, 1, 1, 1, 2, 1, 1, 1, 1, 1, 2, 2, 2, 2, 2, 2, 2, 1, 1, 1, 1, 1, 3, 3, 3, 3, 3, 3, 2, 2, 2, 2, 2, 2, 1, 1, 1, 1, 1, 1, 4, 3, 3, 3, 3, 3, 4, 4, 4, 4, 4, 4, 2, 2, 2, 2, 2, 2, 3, 2, 2, 2, 1, 1, 3, 3, 3, 3, 3, 3, 1, 1, 1, 1, 1, 1, 5, 4, 3, 3, 2, 2, 2, 1, 1, 1, 1, 1, 2, 2, 2, 2, 2, 2, 4, 3, 3, 3, 2, 2, 5, 4, 4, 4, 4, 4, 4, 4, 4, 4, 4, 4, 1, 1, 1, 1, 1, 1, 1, 1, 1, 1, 1, 1, 4, 4, 3, 2, 1, 1, 2, 1, 1, 1, 1, 1, 3, 2, 2, 2, 2, 2, 5, 4, 3, 3, 2, 2, 4, 3, 3, 3, 2, 2, 3, 3, 2, 2, 2, 1, 5, 3, 3, 2, 1, 1, 1, 1, 1, 1, 1, 1
 |4, 4, 4, 4, 3, 3, 5, 4, 4, 3, 2, 2, 3, 2, 2, 2, 2, 2, 5, 5, 5, 5, 5, 5, 5, 4, 4, 4, 4, 4, 3, 3, 3, 3, 3, 3, 4, 3, 3, 2, 2, 2, 3, 2, 2, 2, 1, 1, 3, 2, 2, 2, 2, 2, 5, 4, 3, 3, 3, 2, 5, 4, 4, 3, 2, 2, 3, 3, 3, 3, 2, 2, 4, 3, 3, 3, 2, 1, 1, 1, 1, 1, 1, 1, 4, 3, 3, 3, 2, 2, 4, 3, 3, 3, 3, 3, 4, 4, 4, 4, 4, 4, 4, 3, 3, 2, 2, 2, 4, 3, 3, 2, 2, 2, 3, 3, 2, 2, 1, 1, 1, 1, 1, 1, 1, 1, 4, 4, 4, 3, 3, 2, 4, 4, 4, 4, 4, 4, 2, 2, 2, 2, 2, 2, 5, 5, 5, 5, 5, 5, 4, 3, 3, 2, 2, 1, 3, 2, 2, 2, 1, 1, 5, 4, 4, 4, 4, 4, 4, 3, 3, 2, 2, 2, 5, 4, 3, 3, 2, 2, 5, 4, 4, 4, 4, 4, 2, 2, 2, 2, 2, 2, 4, 4, 4, 4, 4, 4, 2, 1, 1, 1, 1, 1, 5, 4, 4, 3, 3, 2, 3, 3, 3, 2, 2, 2, 5, 4, 4, 3, 3, 2, 4, 4, 3, 3, 3, 2, 5, 4, 4, 4, 3, 3, 3, 3, 3, 3, 3, 3, 3, 3, 2, 2, 2, 1, 4, 4, 4, 4, 4, 4, 5, 4, 4, 4, 3, 3, 3, 3, 3, 3, 3, 3, 5, 4, 4, 4, 4, 4, 2, 2, 2, 2, 1, 1, 4, 4, 4, 4, 4, 4, 2, 2, 2, 2, 2, 2, 4, 3, 3, 3, 3, 3, 4, 4, 4, 4, 3, 3, 4, 4, 4, 3, 3, 2, 5, 3, 3, 3, 2, 1, 2, 2, 2, 2, 1, 1, 1, 1, 1, 1, 1, 1, 5, 4, 4, 4, 4, 4, 1, 1, 1, 1, 1, 1, 2, 2, 2, 2, 2, 2, 4, 3, 2, 2, 2, 1, 5, 4, 4, 3, 3, 2, 5, 4, 3, 3, 2, 2, 4, 3, 3, 3, 2, 1, 4, 3, 3, 2, 2, 1, 2, 2, 2, 2, 2, 2, 3, 3, 3, 3, 3, 3, 4, 3, 2, 2, 1, 1, 4, 4, 4, 4, 4, 4, 4, 4, 4, 4, 4, 4, 4, 4, 4, 3, 3, 2, 2, 2, 2, 2, 1, 1, 4, 4, 4, 4, 4, 4, 1, 1, 1, 1, 1, 1, 4, 3, 2, 2, 1, 1, 4, 4, 3, 3, 2, 2, 4, 4, 3, 3, 2, 2, 4, 3, 2, 2, 2, 1, 4, 4, 4, 4, 4, 4, 3, 3, 3, 3, 3, 3, 5, 4, 3, 3, 3, 2, 5, 5, 5, 5, 5, 5, 1, 1, 1, 1, 1, 1, 4, 3, 3, 2, 1, 1, 5, 4, 3, 3, 2, 2, 4, 3, 3, 2, 1, 1, 5, 4, 4, 3, 3, 3, 2, 2, 2, 2, 2, 2, 2, 2, 2, 2, 2, 2, 4, 4, 4, 4, 4, 4, 4, 3, 3, 2, 2, 2, 4, 4, 4, 3, 3, 3, 1, 1, 1, 1, 1, 1, 5, 3, 3, 2, 2, 1, 4, 3, 2, 2, 1, 1, 4, 3, 2, 2, 2, 1, 3, 3, 3, 3, 3, 3, 5, 5, 5, 5, 5, 5, 2, 2, 2, 2, 2, 2, 4, 3, 3, 3, 3, 3, 1, 1, 1, 1, 1, 1, 1, 1, 1, 1, 1, 1, 3, 2, 2, 1, 1, 1
 |4, 4, 4, 4, 3, 3, 18, 13, 11, 9, 9, 5, 16, 11, 11, 7, 7, 5, 18, 15, 13, 10, 6, 5, 26, 23, 17, 16, 10, 6, 18, 16, 13, 12, 9, 7, 15, 15, 15, 15, 14, 14, 17, 16, 15, 14, 12, 12, 20, 19, 19, 19, 19, 19, 22, 16, 15, 9, 4, 1, 4, 4, 3, 3, 2, 2, 22, 21, 20, 20, 20, 19, 19, 18, 17, 16, 15, 14, 24, 21, 17, 14, 11, 7, 16, 15, 13, 12, 8, 8, 27, 24, 21, 21, 18, 15, 16, 12, 11, 8, 4, 3, 21, 21, 21, 20, 20, 20, 28, 24, 22, 18, 16, 13, 14, 13, 13, 13, 13, 13, 27, 24, 19, 16, 12, 10, 26, 26, 26, 26, 26, 26, 8, 8, 8, 8, 8, 8, 8, 8, 7, 5, 4, 4, 9, 8, 7, 7, 5, 5, 17, 14, 14, 13, 11, 10, 19, 18, 15, 14, 12, 11, 29, 29, 29, 29, 29, 29, 10, 9, 7, 6, 3, 3, 6, 4, 4, 3, 3, 2, 21, 21, 21, 21, 21, 21, 12, 11, 10, 10, 9, 8, 4, 4, 3, 2, 1, 1, 12, 12, 11, 8, 8, 6, 23, 21, 20, 19, 19, 17, 23, 23, 18, 16, 11, 11, 17, 17, 17, 17, 16, 16, 29, 23, 21, 18, 16, 12, 23, 20, 19, 16, 15, 13, 12, 10, 9, 8, 6, 5, 19, 17, 13, 10, 7, 6, 4, 4, 3, 3, 3, 2, 24, 21, 16, 15, 13, 10, 29, 27, 25, 23, 22, 20, 24, 20, 17, 14, 13, 10, 24, 24, 23, 21, 20, 19, 10, 10, 10, 10, 9, 9, 17, 16, 12, 10, 9, 6, 19, 18, 18, 18, 18, 18, 23, 21, 17, 14, 11, 7, 16, 16, 13, 7, 5, 2, 28, 24, 23, 22, 18, 16, 28, 28, 27, 26, 25, 25, 22, 22, 20, 19, 19, 18, 19, 18, 18, 16, 16, 15, 18, 17, 16, 14, 12, 12, 30, 26, 23, 22, 19, 18, 14, 13, 12, 12, 11, 11, 11, 11, 9, 8, 7, 7, 21, 18, 16, 12, 8, 4, 11, 9, 8, 7, 6, 4, 13, 12, 10, 6, 3, 1, 24, 21, 19, 19, 15, 12, 15, 13, 13, 11, 10, 10, 21, 19, 17, 15, 14, 13, 20, 19, 18, 17, 16, 14, 26, 25, 21, 18, 11, 8, 13, 12, 10, 10, 9, 8, 20, 19, 19, 19, 19, 19, 26, 22, 21, 20, 17, 17, 12, 10, 8, 8, 6, 5, 18, 18, 14, 11, 8, 4, 28, 27, 26, 25, 25, 24, 11, 10, 9, 7, 5, 4, 13, 12, 12, 12, 12, 12, 24, 23, 21, 20, 19, 17, 7, 6, 5, 4, 2, 2, 30, 30, 30, 30, 30, 30, 19, 17, 13, 12, 8, 3, 19, 18, 16, 16, 15, 14, 12, 11, 9, 8, 7, 6, 10, 10, 10, 10, 9, 9, 16, 13, 11, 10, 8, 4, 27, 24, 22, 22, 19, 17, 23, 21, 21, 19, 19, 18, 3, 3, 3, 3, 3, 3, 23, 22, 22, 21, 20, 19, 20, 19, 18, 16, 14, 13, 15, 13, 11, 10, 7, 3, 27, 23, 20, 15, 13, 9, 10, 9, 8, 6, 5, 4, 14, 11, 11, 8, 6, 5, 5, 3, 3, 2, 2, 1, 17, 17, 17, 17, 17, 17, 19, 18, 18, 17, 17, 16, 9, 9, 9, 9, 9, 9, 21, 20, 20, 19, 19, 18, 10, 10, 8, 4, 4, 1, 11, 10, 10, 10, 9, 9, 28, 26, 19, 17, 13, 11
 |15, 14, 12, 11, 11, 9, 4, 3, 3, 2, 2, 1, 22, 20, 18, 14, 10, 6, 29, 26, 26, 23, 20, 18, 23, 19, 17, 17, 11, 9, 24, 23, 16, 12, 11, 5, 29, 25, 21, 17, 10, 4, 20, 20, 19, 18, 16, 15, 26, 25, 23, 22, 21, 21, 18, 17, 15, 14, 13, 13, 13, 11, 7, 6, 5, 1, 19, 13, 11, 7, 4, 2, 10, 9, 8, 8, 6, 4, 13, 13, 12, 10, 9, 9, 28, 25, 18, 15, 13, 7, 19, 17, 16, 15, 15, 13, 23, 22, 19, 18, 14, 13, 14, 13, 13, 13, 13, 13, 19, 18, 17, 16, 16, 15, 29, 24, 21, 17, 16, 11, 27, 27, 25, 24, 24, 23, 18, 18, 18, 18, 18, 18, 29, 27, 23, 23, 21, 18, 19, 18, 15, 14, 11, 11, 23, 18, 15, 14, 13, 9, 15, 15, 13, 13, 11, 10, 29, 26, 25, 22, 19, 18, 25, 21, 17, 15, 10, 9, 28, 23, 23, 20, 15, 15, 12, 11, 11, 9, 7, 6, 12, 11, 11, 10, 10, 10, 16, 16, 16, 16, 16, 16, 24, 22, 18, 16, 12, 8, 26, 26, 21, 17, 15, 13, 10, 10, 10, 9, 9, 8, 23, 23, 22, 22, 20, 20, 20, 14, 12, 10, 7, 2, 12, 9, 8, 7, 7, 5, 20, 20, 20, 20, 20, 20, 10, 7, 6, 6, 4, 3, 16, 13, 12, 11, 7, 5, 25, 23, 23, 22, 21, 21, 21, 21, 20, 18, 17, 16, 20, 18, 16, 16, 15, 14, 28, 25, 20, 17, 16, 12, 24, 20, 20, 18, 13, 11, 30, 29, 28, 28, 26, 26, 5, 4, 4, 2, 1, 1, 25, 24, 21, 17, 13, 11, 27, 26, 26, 26, 25, 25, 13, 12, 11, 10, 9, 7, 19, 17, 15, 13, 11, 9, 30, 27, 25, 22, 19, 17, 27, 26, 25, 25, 23, 23, 18, 16, 16, 14, 14, 13, 9, 8, 8, 8, 8, 8, 16, 12, 11, 8, 4, 3, 19, 14, 13, 11, 8, 7, 23, 17, 15, 12, 8, 2, 15, 14, 11, 11, 8, 7, 11, 10, 10, 9, 8, 8, 8, 8, 6, 5, 3, 2, 24, 20, 18, 14, 12, 11, 25, 18, 14, 13, 10, 4, 11, 8, 7, 5, 5, 4, 17, 16, 13, 12, 10, 8, 20, 17, 14, 10, 9, 6, 18, 16, 15, 13, 10, 7, 18, 16, 15, 15, 13, 13, 2, 2, 2, 1, 1, 1, 19, 18, 16, 15, 14, 13, 24, 21, 18, 17, 14, 11, 16, 14, 11, 7, 6, 3, 14, 14, 14, 14, 14, 14, 23, 22, 21, 18, 17, 16, 14, 13, 9, 7, 7, 4, 11, 10, 7, 7, 4, 3, 20, 15, 15, 12, 9, 3, 23, 20, 18, 15, 12, 12, 28, 20, 16, 16, 8, 7, 28, 27, 26, 26, 25, 25, 4, 3, 3, 3, 1, 1, 9, 9, 9, 8, 7, 7, 24, 23, 22, 20, 19, 19, 24, 22, 22, 21, 20, 20, 26, 23, 23, 21, 20, 17, 19, 19, 19, 19, 19, 19, 12, 11, 10, 6, 4, 3, 11, 10, 10, 10, 9, 9, 20, 18, 16, 15, 11, 11, 19, 17, 17, 15, 12, 12, 23, 23, 21, 16, 14, 14, 26, 22, 20, 20, 16, 15, 19, 18, 17, 17, 16, 16, 22, 20, 17, 13, 13, 7, 19, 16, 12, 10, 10, 7, 22, 22, 21, 21, 20, 20, 11, 11, 10, 8, 8, 7, 26, 26, 25, 25, 24, 24, 9, 7, 7, 4, 3, 2
 |28, 26, 26, 24, 24, 22, 22, 18, 12, 12, 9, 5, 16, 15, 14, 12, 8, 8, 21, 20, 20, 20, 19, 19, 24, 21, 17, 12, 8, 7, 22, 18, 17, 15, 12, 11, 26, 26, 26, 26, 26, 26, 17, 16, 16, 16, 16, 16, 7, 6, 6, 6, 6, 6, 22, 16, 13, 11, 9, 3, 13, 12, 11, 10, 9, 9, 26, 22, 22, 18, 17, 14, 29, 28, 26, 26, 25, 24, 22, 17, 16, 13, 11, 6, 27, 22, 19, 15, 11, 8, 12, 10, 9, 7, 3, 2, 16, 15, 15, 14, 13, 12, 24, 21, 18, 18, 14, 12, 20, 18, 18, 16, 14, 12, 15, 13, 11, 10, 9, 7, 14, 10, 10, 7, 7, 5, 23, 23, 21, 20, 16, 15, 23, 22, 18, 17, 14, 12, 23, 18, 17, 13, 11, 10, 21, 18, 18, 15, 14, 12, 8, 8, 8, 8, 8, 8, 13, 10, 9, 6, 4, 2, 22, 19, 19, 17, 13, 13, 20, 19, 17, 14, 11, 11, 3, 2, 2, 1, 1, 1, 12, 11, 8, 8, 5, 5, 28, 22, 16, 14, 6, 3, 27, 24, 24, 21, 20, 19, 30, 28, 27, 26, 24, 24, 17, 15, 15, 12, 11, 11, 14, 11, 11, 10, 8, 8, 26, 25, 23, 20, 19, 17, 16, 14, 14, 13, 12, 10, 14, 11, 8, 8, 6, 1, 11, 9, 9, 7, 6, 5, 21, 19, 17, 16, 14, 13, 21, 19, 18, 16, 15, 13, 22, 18, 15, 14, 10, 9, 4, 3, 2, 2, 2, 1, 25, 19, 15, 10, 5, 1, 26, 24, 21, 18, 13, 9, 20, 18, 16, 16, 15, 13, 28, 26, 25, 23, 22, 22, 25, 23, 23, 23, 22, 21, 23, 22, 20, 18, 16, 16, 22, 19, 17, 17, 14, 11, 11, 10, 10, 10, 9, 9, 22, 22, 21, 21, 20, 20, 22, 22, 22, 22, 22, 22, 22, 20, 15, 14, 6, 5, 27, 24, 24, 21, 19, 19, 14, 13, 13, 12, 11, 11, 22, 19, 13, 10, 10, 7, 22, 17, 17, 13, 11, 10, 26, 20, 19, 15, 12, 9, 14, 14, 14, 14, 13, 13, 13, 12, 12, 12, 11, 11, 8, 6, 5, 3, 3, 1, 16, 13, 13, 11, 5, 3, 19, 18, 18, 18, 17, 17, 27, 27, 23, 21, 16, 15, 18, 15, 15, 13, 13, 11, 14, 12, 10, 8, 5, 4, 25, 25, 23, 23, 21, 21, 22, 20, 19, 17, 17, 15, 29, 29, 27, 26, 25, 25, 18, 17, 16, 16, 15, 14, 9, 8, 7, 7, 4, 4, 17, 15, 13, 9, 9, 6, 29, 27, 25, 22, 22, 20, 17, 17, 14, 11, 10, 8, 18, 17, 16, 15, 15, 14, 18, 12, 12, 8, 3, 2, 23, 22, 18, 15, 15, 11, 8, 8, 7, 5, 4, 4, 21, 18, 18, 15, 13, 10, 22, 21, 19, 15, 12, 10, 26, 24, 24, 22, 19, 17, 13, 10, 8, 7, 5, 4, 30, 23, 19, 17, 13, 9, 26, 22, 22, 18, 17, 16, 11, 10, 9, 7, 6, 5, 29, 21, 17, 13, 12, 9, 30, 28, 28, 27, 26, 25, 24, 23, 20, 16, 10, 8, 10, 9, 7, 6, 2, 1, 5, 5, 5, 4, 4, 4, 21, 18, 18, 15, 14, 11, 16, 16, 16, 15, 15, 14, 19, 19, 19, 19, 19, 19, 4, 3, 3, 3, 1, 1, 30, 29, 28, 28, 27, 27, 22, 21, 20, 20, 20, 19, 24, 23, 23, 22, 22, 21, 25, 24, 23, 23, 23, 22
 |20, 16, 12, 11, 5, 5, 23, 19, 17, 16, 15, 13, 19, 17, 16, 15, 14, 14, 4, 3, 3, 3, 3, 3, 27, 24, 22, 20, 19, 17, 24, 23, 23, 23, 23, 23, 20, 18, 16, 15, 10, 8, 7, 7, 7, 7, 7, 7, 22, 18, 11, 11, 6, 2, 28, 26, 26, 25, 25, 24, 5, 5, 5, 5, 5, 5, 16, 15, 14, 12, 10, 9, 4, 4, 4, 4, 4, 4, 25, 23, 21, 20, 18, 15, 21, 19, 16, 14, 12, 10, 23, 23, 22, 20, 19, 19, 5, 5, 5, 5, 5, 5, 24, 22, 14, 14, 8, 5, 27, 20, 18, 17, 11, 8, 6, 5, 5, 5, 5, 5, 28, 27, 24, 24, 22, 20, 24, 20, 16, 15, 12, 9, 28, 20, 19, 15, 12, 8, 23, 21, 19, 17, 14, 13, 17, 16, 16, 16, 16, 16, 14, 13, 12, 12, 10, 10, 22, 20, 19, 16, 15, 12, 24, 23, 23, 23, 21, 21, 15, 15, 15, 15, 15, 14, 24, 23, 23, 21, 20, 20, 26, 19, 16, 11, 11, 4, 16, 15, 14, 14, 12, 12, 23, 21, 20, 19, 17, 16, 8, 6, 4, 4, 2, 1, 29, 29, 29, 28, 28, 28, 17, 16, 14, 12, 9, 8, 13, 13, 13, 13, 13, 13, 23, 16, 14, 11, 5, 1, 28, 24, 20, 16, 12, 6, 30, 23, 18, 12, 7, 2, 17, 12, 12, 10, 7, 5, 19, 17, 17, 14, 13, 13, 10, 7, 7, 4, 3, 3, 17, 14, 13, 12, 10, 10, 10, 9, 9, 8, 8, 8, 29, 22, 16, 13, 12, 7, 12, 10, 8, 7, 4, 1, 29, 29, 28, 28, 26, 26, 23, 21, 20, 19, 17, 14, 22, 18, 17, 10, 6, 3, 6, 6, 6, 5, 5, 5, 6, 6, 6, 6, 5, 5, 26, 21, 18, 13, 10, 6, 12, 11, 11, 10, 10, 10, 22, 19, 19, 17, 16, 15, 13, 11, 10, 8, 6, 4, 20, 19, 17, 14, 11, 11, 9, 8, 7, 7, 6, 6, 26, 23, 23, 21, 19, 18, 11, 9, 9, 8, 6, 6, 26, 26, 24, 23, 22, 20, 21, 19, 19, 18, 18, 17, 20, 19, 17, 13, 11, 6, 22, 17, 17, 13, 12, 9, 25, 24, 23, 23, 22, 21, 16, 12, 11, 6, 3, 1, 16, 15, 15, 14, 11, 10, 27, 21, 18, 16, 10, 7, 26, 20, 19, 15, 13, 11, 21, 20, 20, 19, 19, 19, 23, 22, 21, 19, 18, 17, 17, 14, 10, 9, 6, 3, 29, 27, 26, 24, 24, 22, 30, 23, 18, 14, 10, 8, 10, 10, 10, 10, 9, 9, 21, 19, 14, 11, 10, 7, 14, 12, 10, 7, 5, 3, 13, 11, 9, 7, 5, 3, 20, 18, 17, 16, 16, 15, 27, 24, 21, 19, 18, 13, 25, 23, 22, 20, 18, 18, 6, 4, 3, 3, 1, 1, 13, 11, 11, 10, 9, 9, 28, 26, 25, 23, 21, 20, 21, 21, 21, 21, 21, 21, 22, 20, 18, 14, 12, 12, 17, 15, 12, 11, 7, 5, 23, 20, 20, 17, 15, 14, 13, 12, 12, 11, 11, 10, 18, 17, 17, 17, 17, 17, 12, 11, 9, 9, 5, 4, 23, 20, 20, 18, 16, 14, 26, 26, 26, 26, 26, 26, 28, 24, 21, 16, 12, 12, 15, 13, 12, 12, 10, 9, 28, 26, 21, 20, 16, 14, 28, 24, 16, 15, 9, 7, 19, 15, 14, 12, 8, 5, 13, 12, 11, 9, 8, 7, 27, 24, 23, 21, 20, 18|];